Minimize
  - 18 y_0 - 24 y_1 - y_2 - 13 y_3 - 2 y_4 - 13 y_5 - 17 y_6 - 15 y_7 - y_8
   - 10 y_9 - 19 y_10 - 15 y_11 - 11 y_12 - 18 y_13 - 17 y_14 - 14 y_15
   - 3 y_16 - 13 y_18 - 15 y_19 + 239 Constant
Subject To
 c_0: y_5 = 1
 c_1_0: y_0 >= 1
 c_1_1: y_1 >= 1
 c_1_2: y_2 + y_8 + y_17 >= 1
 c_1_3: y_3 + y_15 >= 1
 c_1_4: y_4 + y_8 + y_17 >= 1
 c_1_5: y_5 + y_7 >= 1
 c_1_6: y_6 >= 1
 c_1_7: y_5 + y_7 + y_11 >= 1
 c_1_8: y_2 + y_4 + y_8 + y_17 >= 1
 c_1_9: y_9 >= 1
 c_1_10: y_10 >= 1
 c_1_11: y_7 + y_11 >= 1
 c_1_12: y_12 + y_18 >= 1
 c_1_13: y_13 >= 1
 c_1_14: y_14 + y_19 >= 1
 c_1_15: y_3 + y_15 >= 1
 c_1_16: y_16 >= 1
 c_1_17: y_2 + y_4 + y_8 + y_17 >= 1
 c_1_18: y_12 + y_18 >= 1
 c_1_19: y_14 + y_19 >= 1
Bounds
 Constant = 1
Binaries
 y_0 y_1 y_2 y_3 y_4 y_5 y_6 y_7 y_8 y_9 y_10 y_11 y_12 y_13 y_14 y_15 y_16
 y_17 y_18 y_19
End
